p tw 116 127
1 2
2 29
3 14
4 5
5 6
6 7
7 8
8 9
9 10
10 11
11 12
12 13
13 15
14 21
15 16
16 17
17 18
18 19
19 20
21 22
21 23
22 19
23 24
24 25
25 26
26 27
27 28
28 30
29 40
30 31
31 32
32 33
33 34
33 19
34 35
35 36
35 19
36 37
37 38
38 39
39 41
40 51
41 42
42 43
43 44
44 45
44 54
45 46
46 47
47 48
48 49
49 50
50 52
51 62
51 19
52 53
53 54
53 19
54 55
55 56
56 57
57 58
57 66
58 59
59 60
60 61
61 63
62 73
63 64
64 65
65 66
66 67
67 68
68 69
69 70
70 71
71 72
72 74
73 84
74 75
75 76
76 77
77 78
78 79
79 80
79 90
80 81
81 82
82 83
83 85
84 95
85 86
86 87
87 88
88 89
88 90
89 19
90 91
91 92
92 93
93 94
94 96
94 70
95 106
95 19
96 97
97 98
98 99
99 100
100 101
101 102
102 103
103 104
104 105
105 107
106 3
107 108
108 109
109 110
110 111
111 112
112 113
113 114
114 115
114 98
115 116
116 4
